177176 -1 465330 12493273 177176 0.98
177188 -1 436752 11629805 177188 0.99
175260 -1 457925 12801871 175260 0.99
176800 -1 444120 11730492 176800 0.98
176716 -1 412577 10785894 176716 0.98
179164 -1 382227 10666871 179164 0.99
181396 -1 491027 12400273 181396 0.99
177326 -1 345035 9236180 177326 0.97
177990 -1 422880 11618943 177990 1
179850 -1 379531 10534050 179850 0.99
